words_hard_train/2584.qaiger
aag 113 24 0 1 89
2
4
8
14
20
26
30
36
40
42
54
56
60
62
66
68
88
90
136
138
164
166
192
194
227
6 2 4
10 8 4
12 7 11
16 14 4
18 12 17
22 20 4
24 18 23
28 24 27
32 28 31
34 32 4
38 34 37
44 40 43
46 39 44
48 13 14
50 12 15
52 49 51
58 54 57
64 60 63
70 66 69
72 65 71
74 59 72
76 52 75
78 58 73
80 76 79
82 19 20
84 18 21
86 83 85
92 88 91
94 92 75
96 93 74
98 95 97
100 86 98
102 81 101
104 64 9
106 104 70
108 107 73
110 11 2
112 10 3
114 111 113
116 105 71
118 114 117
120 53 58
122 119 121
124 108 122
126 102 125
128 87 99
130 127 129
132 25 26
134 133 29
140 136 139
142 97 140
144 96 141
146 143 145
148 134 146
150 131 149
152 135 147
154 151 153
156 29 4
158 157 30
160 156 31
162 159 161
168 164 167
170 168 145
172 169 144
174 171 173
176 163 174
178 155 177
180 162 175
182 179 181
184 33 4
186 185 37
188 184 36
190 187 189
196 192 195
198 196 173
200 197 172
202 199 201
204 190 202
206 183 205
208 191 203
210 207 209
212 210 200
214 46 213
216 211 201
218 217 47
220 215 219
222 38 45
224 222 213
226 221 225
i0 1 x2[1]
i1 1 x2[7]
i2 1 x2[0]
i3 1 x2[2]
i4 1 x2[3]
i5 1 x2[4]
i6 1 x2[5]
i7 1 x2[6]
i8 2 y2[7]
i9 1 x1[7]
i10 2 y2[2]
i11 1 x1[2]
i12 2 y2[0]
i13 1 x1[0]
i14 2 y2[1]
i15 1 x1[1]
i16 2 y2[3]
i17 1 x1[3]
i18 2 y2[4]
i19 1 x1[4]
i20 2 y2[5]
i21 1 x1[5]
i22 2 y2[6]
i23 1 x1[6]
o0 bv[0]
c
simplified
  <
    abs
      1 x2
    subtract
      or
        2 y2
        1 x1
      1 x1
