words_hard_train/2584.qaiger.qdimacs
p cnf 113 268
a 1 2 34 4 69 97 7 10 13 45 15 18 83 21 28 31 0
e 3 5 6 8 9 11 12 14 16 17 19 20 22 23 24 25 26 27 29 30 32 33 35 36 37 38 39 40 41 42 43 44 46 47 48 49 50 51 52 53 54 55 56 57 58 59 60 61 62 63 64 65 66 67 68 70 71 72 73 74 75 76 77 78 79 80 81 82 84 85 86 87 88 89 90 91 92 93 94 95 96 98 99 100 101 102 103 104 105 106 107 108 109 110 111 112 113 0
-1 -2 3 0
1 -3 0
2 -3 0
-4 -2 5 0
4 -5 0
2 -5 0
3 5 6 0
-3 -6 0
-5 -6 0
-7 -2 8 0
7 -8 0
2 -8 0
-6 8 9 0
6 -9 0
-8 -9 0
-10 -2 11 0
10 -11 0
2 -11 0
-9 11 12 0
9 -12 0
-11 -12 0
-12 13 14 0
12 -14 0
-13 -14 0
-14 15 16 0
14 -16 0
-15 -16 0
-16 -2 17 0
16 -17 0
2 -17 0
-17 18 19 0
17 -19 0
-18 -19 0
-20 21 22 0
20 -22 0
-21 -22 0
19 -22 23 0
-19 -23 0
22 -23 0
6 -7 24 0
-6 -24 0
7 -24 0
-6 7 25 0
6 -25 0
-7 -25 0
24 25 26 0
-24 -26 0
-25 -26 0
-27 28 29 0
27 -29 0
-28 -29 0
-30 31 32 0
30 -32 0
-31 -32 0
-33 34 35 0
33 -35 0
-34 -35 0
32 35 36 0
-32 -36 0
-35 -36 0
29 -36 37 0
-29 -37 0
36 -37 0
-26 37 38 0
26 -38 0
-37 -38 0
-29 36 39 0
29 -39 0
-36 -39 0
-38 39 40 0
38 -40 0
-39 -40 0
9 -10 41 0
-9 -41 0
10 -41 0
-9 10 42 0
9 -42 0
-10 -42 0
41 42 43 0
-41 -43 0
-42 -43 0
-44 45 46 0
44 -46 0
-45 -46 0
-46 37 47 0
46 -47 0
-37 -47 0
46 -37 48 0
-46 -48 0
37 -48 0
47 48 49 0
-47 -49 0
-48 -49 0
-43 -49 50 0
43 -50 0
49 -50 0
40 50 51 0
-40 -51 0
-50 -51 0
-32 4 52 0
32 -52 0
-4 -52 0
-52 -35 53 0
52 -53 0
35 -53 0
53 36 54 0
-53 -54 0
-36 -54 0
5 -1 55 0
-5 -55 0
1 -55 0
-5 1 56 0
5 -56 0
-1 -56 0
55 56 57 0
-55 -57 0
-56 -57 0
52 35 58 0
-52 -58 0
-35 -58 0
-57 58 59 0
57 -59 0
-58 -59 0
26 -29 60 0
-26 -60 0
29 -60 0
59 60 61 0
-59 -61 0
-60 -61 0
-54 -61 62 0
54 -62 0
61 -62 0
-51 62 63 0
51 -63 0
-62 -63 0
43 49 64 0
-43 -64 0
-49 -64 0
63 64 65 0
-63 -65 0
-64 -65 0
12 -13 66 0
-12 -66 0
13 -66 0
66 14 67 0
-66 -67 0
-14 -67 0
-68 69 70 0
68 -70 0
-69 -70 0
48 -70 71 0
-48 -71 0
70 -71 0
-48 70 72 0
48 -72 0
-70 -72 0
71 72 73 0
-71 -73 0
-72 -73 0
-67 -73 74 0
67 -74 0
73 -74 0
65 74 75 0
-65 -75 0
-74 -75 0
67 73 76 0
-67 -76 0
-73 -76 0
75 76 77 0
-75 -77 0
-76 -77 0
14 -2 78 0
-14 -78 0
2 -78 0
78 -15 79 0
-78 -79 0
15 -79 0
-78 15 80 0
78 -80 0
-15 -80 0
79 80 81 0
-79 -81 0
-80 -81 0
-82 83 84 0
82 -84 0
-83 -84 0
-84 72 85 0
84 -85 0
-72 -85 0
84 -72 86 0
-84 -86 0
72 -86 0
85 86 87 0
-85 -87 0
-86 -87 0
81 -87 88 0
-81 -88 0
87 -88 0
77 88 89 0
-77 -89 0
-88 -89 0
-81 87 90 0
81 -90 0
-87 -90 0
89 90 91 0
-89 -91 0
-90 -91 0
16 -2 92 0
-16 -92 0
2 -92 0
92 18 93 0
-92 -93 0
-18 -93 0
-92 -18 94 0
92 -94 0
18 -94 0
93 94 95 0
-93 -95 0
-94 -95 0
-96 97 98 0
96 -98 0
-97 -98 0
-98 86 99 0
98 -99 0
-86 -99 0
98 -86 100 0
-98 -100 0
86 -100 0
99 100 101 0
-99 -101 0
-100 -101 0
-95 -101 102 0
95 -102 0
101 -102 0
91 102 103 0
-91 -103 0
-102 -103 0
95 101 104 0
-95 -104 0
-101 -104 0
103 104 105 0
-103 -105 0
-104 -105 0
-105 -100 106 0
105 -106 0
100 -106 0
-23 106 107 0
23 -107 0
-106 -107 0
105 100 108 0
-105 -108 0
-100 -108 0
108 23 109 0
-108 -109 0
-23 -109 0
107 109 110 0
-107 -110 0
-109 -110 0
-19 22 111 0
19 -111 0
-22 -111 0
-111 106 112 0
111 -112 0
-106 -112 0
110 112 113 0
-110 -113 0
-112 -113 0
-113 0
